* Signature: 0x3780288bcbf467e9
NAME lp_typeD_141
OBJSENSE MAX
ROWS
 N  OBJ
 L  c0      
 L  c1      
 G  c2      
 G  c3      
 L  c_key_upper
 G  c_key_lower
 G  _chain_constr_1
 G  _chain_constr_2
 G  _chain_constr_3
 G  _chain_constr_4
 G  _chain_cycle
COLUMNS
    x0        OBJ       9.4695013111903714e-01
    x0        c0        5.5414267949265983e-01
    x0        c1        1.6152096170139785e+00
    x0        c2        1.0743389310861484e+00
    x0        c3        7.3455600952887123e-01
    x0        c_key_upper  1.7430718003620806e+00
    x0        c_key_lower  1.7430718003620806e+00
    x1        OBJ       1.1354774635337352e+00
    x1        c0        5.8288150948475093e-01
    x1        c1        1.2487912403638779e+00
    x1        c2        1.7422394894851472e+00
    x1        c3        1.6648538858000115e+00
    x1        c_key_upper  1.3728365635282118e+00
    x1        c_key_lower  1.3728365635282118e+00
    x2        OBJ       7.9605759100697193e-01
    x2        c0        1.9962116390963427e+00
    x2        c1        5.1760822595316369e-01
    x2        c2        1.8706820826281527e+00
    x2        c3        1.4405863211259025e+00
    x2        c_key_upper  1.9743732384372596e+00
    x2        c_key_lower  1.9743732384372596e+00
    x3        OBJ       8.1375297077102671e-01
    x3        c0        9.7979829180984346e-01
    x3        c1        1.5877031749013912e+00
    x3        c2        8.7431204605005530e-01
    x3        c3        5.3253513803766928e-01
    x3        c_key_upper  1.8774237897733119e+00
    x3        c_key_lower  1.8774237897733119e+00
    x4        OBJ       5.6195126822473251e-01
    x4        c0        9.6911357399349018e-01
    x4        c1        5.6104215874375774e-01
    x4        c2        1.4305357403502503e+00
    x4        c3        7.7156596195990690e-01
    x4        c_key_upper  1.7763103108880753e+00
    x4        c_key_lower  1.7763103108880753e+00
    x5        OBJ       5.6279409646756351e-01
    x5        c0        1.3314646971540602e+00
    x5        c1        7.0573786609741429e-01
    x5        c2        9.6792181104904751e-01
    x5        c3        0.874578336890907
    x5        c_key_upper  1.7354824574802854e+00
    x5        c_key_lower  1.7354824574802854e+00
    x6        OBJ       9.6852936429562908e-01
    x6        c0        1.0194911310014549e+00
    x6        c1        1.3398301606917375e+00
    x6        c2        1.5800853487954951e+00
    x6        c3        7.7891783158840044e-01
    x6        c_key_upper  1.4447806265174798e+00
    x6        c_key_lower  1.4447806265174798e+00
    _chain_var_0  _chain_constr_1  -1
    _chain_var_0  _chain_cycle  1
    _chain_var_1  _chain_constr_1  1
    _chain_var_1  _chain_constr_2  -1
    _chain_var_2  _chain_constr_2  1
    _chain_var_2  _chain_constr_3  -1
    _chain_var_3  _chain_constr_3  1
    _chain_var_3  _chain_constr_4  -1
    _chain_var_4  _chain_constr_4  1
    _chain_var_4  _chain_cycle  -1
RHS
    RHS1      c0        4.0649001179083278e+01
    RHS1      c1        36.5653415428317
    RHS1      c2        1.3432480986248402e+01
    RHS1      c3        9.1056163117651430e+00
    RHS1      c_key_upper  5.9621393934933522e+01
    RHS1      c_key_lower  2.9810696967466761e+01
    RHS1      _chain_constr_1  10
    RHS1      _chain_constr_2  10
    RHS1      _chain_constr_3  10
    RHS1      _chain_constr_4  10
    RHS1      _chain_cycle  10
BOUNDS
 UP BND1      x0        10
 UP BND1      x1        10
 UP BND1      x2        10
 UP BND1      x3        10
 UP BND1      x4        10
 UP BND1      x5        10
 UP BND1      x6        10
 UP BND1      _chain_var_0  100
 UP BND1      _chain_var_1  100
 UP BND1      _chain_var_2  100
 UP BND1      _chain_var_3  100
 UP BND1      _chain_var_4  100
ENDATA
